g3 0 1 0	# problem ex3_1_2
 5 6 1 0 0	# vars, constraints, objectives, ranges, eqns
 6 1	# nonlinear constraints, objectives
 0 0	# network constraints: nonlinear, linear
 5 3 3	# nonlinear vars in constraints, objectives, both
 0 0 0 1	# linear network variables; functions; arith, flags
 0 0 0 0 0	# discrete variables: binary, integer, nonlinear (b,c,o)
 26 3	# nonzeros in Jacobian, gradients
 0 0	# max name lengths: constraints, variables
 0 0 0 0 0	# common exprs: b,c,o,c1,o1
b
0 78 102
0 27 45
0 27 45
0 33 45
0 27 45
x5
0 78
1 29.9953
2 36.7758
3 33
4 45
r
1 6.665593
1 85.334407
1 29.48751
1 -9.48751
1 15.599039
1 -10.699039
C0
o54
3
o2
o2
n0.0056858
v3
v2
o16
o2
o2
n0.0022053
v1
v2
o2
o2
n0.0006262
v0
v4
C1
o54
3
o2
o2
n0.0022053
v1
v2
o16
o2
o2
n0.0056858
v3
v2
o16
o2
o2
n0.0006262
v0
v4
C2
o54
3
o2
o2
n0.0071317
v3
v2
o2
o2
n0.0021813
v1
v1
o2
o2
n0.0029955
v0
v3
C3
o54
3
o2
o2
n-0.0071317
v3
v2
o16
o2
o2
n0.0021813
v1
v1
o16
o2
o2
n0.0029955
v0
v3
C4
o54
3
o2
o2
n0.0047026
v1
v2
o2
o2
n0.0019085
v1
v4
o2
o2
n0.0012547
v0
v1
C5
o54
3
o2
o2
n-0.0047026
v1
v2
o16
o2
o2
n0.0019085
v1
v4
o16
o2
o2
n0.0012547
v0
v1
O0 0
o54
3
o2
o2
n0.8356891
v0
v2
o2
o2
n5.3578547
v1
v1
n-40792.141
k4
6
12
18
22
J0 5
0 0
1 0
2 0
3 0
4 0
J1 5
0 0
1 0
2 0
3 0
4 0
J2 4
0 0
1 0
2 0
3 0
J3 4
0 0
1 0
2 0
3 0
J4 4
0 0
1 0
2 0
4 0
J5 4
0 0
1 0
2 0
4 0
G0 3
0 37.293239
1 0
2 0
